; DUP4 DUP4 PUSH cw_1 SWAP1 SWAP2 SWAP1 => PUSH cw_1 DUP5 DUP5 SWAP2
(set-option :produce-proofs true)
; 
(set-info :status unknown)
(declare-fun storage_t ((_ BitVec 256) (_ BitVec 256) (_ BitVec 256) (_ BitVec 256) (_ BitVec 256) Int (_ BitVec 256)) (_ BitVec 256))
(declare-fun w_1 () (_ BitVec 256))
(declare-fun storage_s ((_ BitVec 256) (_ BitVec 256) (_ BitVec 256) (_ BitVec 256) (_ BitVec 256) Int (_ BitVec 256)) (_ BitVec 256))
(declare-fun exc_halt_t (Int) Bool)
(declare-fun exc_halt_s (Int) Bool)
(declare-fun stack_t ((_ BitVec 256) (_ BitVec 256) (_ BitVec 256) (_ BitVec 256) (_ BitVec 256) Int (_ BitVec 6)) (_ BitVec 256))
(declare-fun stack_s ((_ BitVec 256) (_ BitVec 256) (_ BitVec 256) (_ BitVec 256) (_ BitVec 256) Int (_ BitVec 6)) (_ BitVec 256))
(declare-fun sc_t (Int) (_ BitVec 6))
(declare-fun sc_s (Int) (_ BitVec 6))
(declare-fun used_gas_t ((_ BitVec 256) (_ BitVec 256) (_ BitVec 256) (_ BitVec 256) (_ BitVec 256) Int) Int)
(declare-fun used_gas_s ((_ BitVec 256) (_ BitVec 256) (_ BitVec 256) (_ BitVec 256) (_ BitVec 256) Int) Int)
(assert
 (exists ((x_0 (_ BitVec 256)) (x_1 (_ BitVec 256)) (x_2 (_ BitVec 256)) (x_3 (_ BitVec 256)) )(let (($x8636 (forall ((w (_ BitVec 256)) )(let ((?x6187 (storage_t x_0 x_1 x_2 x_3 w_1 4 w)))
 (let ((?x7956 (storage_s x_0 x_1 x_2 x_3 w_1 6 w)))
 (= ?x7956 ?x6187))))
 ))
 (let (($x7854 (exc_halt_t 4)))
 (let (($x772 (exc_halt_s 6)))
 (let (($x4404 (= $x772 $x7854)))
 (let (($x7418 (forall ((n (_ BitVec 6)) )(let ((?x3243 (stack_t x_0 x_1 x_2 x_3 w_1 4 n)))
 (let ((?x6705 (stack_s x_0 x_1 x_2 x_3 w_1 6 n)))
 (let (($x3963 (= ?x6705 ?x3243)))
 (let ((?x1366 (sc_t 4)))
 (let (($x2489 (bvsle ?x1366 n)))
 (or $x2489 $x3963)))))))
 ))
 (let ((?x1366 (sc_t 4)))
 (let ((?x926 (sc_s 6)))
 (let (($x3046 (= ?x926 ?x1366)))
 (let ((?x1185 (used_gas_t x_0 x_1 x_2 x_3 w_1 0)))
 (let ((?x4176 (used_gas_s x_0 x_1 x_2 x_3 w_1 0)))
 (let (($x9250 (= ?x4176 ?x1185)))
 (let (($x4982 (forall ((w (_ BitVec 256)) )(let ((?x7904 (storage_t x_0 x_1 x_2 x_3 w_1 0 w)))
 (let ((?x4789 (storage_s x_0 x_1 x_2 x_3 w_1 0 w)))
 (= ?x4789 ?x7904))))
 ))
 (let (($x56 (exc_halt_t 0)))
 (let (($x57 (exc_halt_s 0)))
 (let (($x58 (= $x57 $x56)))
 (let (($x1056 (forall ((n (_ BitVec 6)) )(let ((?x8003 (stack_t x_0 x_1 x_2 x_3 w_1 0 n)))
 (let ((?x428 (stack_s x_0 x_1 x_2 x_3 w_1 0 n)))
 (let (($x6265 (= ?x428 ?x8003)))
 (let ((?x63 (sc_t 0)))
 (let (($x5904 (bvsle ?x63 n)))
 (or $x5904 $x6265)))))))
 ))
 (let ((?x63 (sc_t 0)))
 (let ((?x72 (sc_s 0)))
 (let (($x73 (= ?x72 ?x63)))
 (let (($x11654 (= $x7854 (or (exc_halt_t 3) (not (bvsle (_ bv0 6) (bvadd (_ bv61 6) (sc_t 3))))))))
 (let (($x7965 (forall ((w (_ BitVec 256)) )(let ((?x4847 (storage_t x_0 x_1 x_2 x_3 w_1 3 w)))
 (let ((?x6187 (storage_t x_0 x_1 x_2 x_3 w_1 4 w)))
 (= ?x6187 ?x4847))))
 ))
 (let (($x1875 (forall ((n (_ BitVec 6)) )(let ((?x11964 (sc_t 3)))
 (let ((?x1651 (bvadd (_ bv61 6) ?x11964)))
 (let (($x5142 (bvsle ?x1651 n)))
 (let ((?x6088 (stack_t x_0 x_1 x_2 x_3 w_1 3 n)))
 (let ((?x3243 (stack_t x_0 x_1 x_2 x_3 w_1 4 n)))
 (or (= ?x3243 ?x6088) $x5142)))))))
 ))
 (let ((?x11964 (sc_t 3)))
 (let (($x8397 (= ?x1366 ?x11964)))
 (let (($x9731 (= (used_gas_t x_0 x_1 x_2 x_3 w_1 4) (+ 3 (used_gas_t x_0 x_1 x_2 x_3 w_1 3)))))
 (let (($x9882 (= (stack_t x_0 x_1 x_2 x_3 w_1 4 (bvadd (_ bv62 6) ?x1366)) (stack_t x_0 x_1 x_2 x_3 w_1 3 (bvadd (_ bv62 6) ?x11964)))))
 (let ((?x2640 (bvadd (_ bv63 6) ?x11964)))
 (let ((?x3965 (stack_t x_0 x_1 x_2 x_3 w_1 3 ?x2640)))
 (let (($x829 (= (stack_t x_0 x_1 x_2 x_3 w_1 4 (bvadd (_ bv63 6) ?x1366)) (stack_t x_0 x_1 x_2 x_3 w_1 3 (bvadd (_ bv61 6) ?x11964)))))
 (let (($x9580 (exc_halt_t 2)))
 (let (($x7845 (not (= ((_ extract 6 6) (bvadd (_ bv1 7) (concat (_ bv0 1) (sc_t 2)))) (_ bv0 1)))))
 (let (($x4112 (exc_halt_t 3)))
 (let (($x9330 (forall ((w (_ BitVec 256)) )(let ((?x9374 (storage_t x_0 x_1 x_2 x_3 w_1 2 w)))
 (let ((?x4847 (storage_t x_0 x_1 x_2 x_3 w_1 3 w)))
 (= ?x4847 ?x9374))))
 ))
 (let (($x10091 (forall ((n (_ BitVec 6)) )(let ((?x9743 (stack_t x_0 x_1 x_2 x_3 w_1 2 n)))
 (let ((?x6088 (stack_t x_0 x_1 x_2 x_3 w_1 3 n)))
 (or (= ?x6088 ?x9743) (bvsle (bvadd (_ bv59 6) (sc_t 2)) n)))))
 ))
 (let (($x8488 (= ?x11964 (bvadd (_ bv1 6) (sc_t 2)))))
 (let ((?x10789 (used_gas_t x_0 x_1 x_2 x_3 w_1 3)))
 (let ((?x2992 (sc_t 2)))
 (let ((?x2620 (bvadd (_ bv63 6) ?x2992)))
 (let ((?x6205 (stack_t x_0 x_1 x_2 x_3 w_1 2 ?x2620)))
 (let (($x3820 (= (stack_t x_0 x_1 x_2 x_3 w_1 3 (bvadd (_ bv62 6) ?x2992)) (stack_t x_0 x_1 x_2 x_3 w_1 2 (bvadd (_ bv62 6) ?x2992)))))
 (let (($x9391 (= (stack_t x_0 x_1 x_2 x_3 w_1 3 (bvadd (_ bv61 6) ?x2992)) (stack_t x_0 x_1 x_2 x_3 w_1 2 (bvadd (_ bv61 6) ?x2992)))))
 (let (($x9762 (= (stack_t x_0 x_1 x_2 x_3 w_1 3 (bvadd (_ bv60 6) ?x2992)) (stack_t x_0 x_1 x_2 x_3 w_1 2 (bvadd (_ bv60 6) ?x2992)))))
 (let ((?x1386 (bvadd (_ bv59 6) ?x2992)))
 (let ((?x5751 (stack_t x_0 x_1 x_2 x_3 w_1 2 ?x1386)))
 (let (($x9534 (not (= ((_ extract 6 6) (bvadd (_ bv1 7) (concat (_ bv0 1) (sc_t 1)))) (_ bv0 1)))))
 (let (($x408 (exc_halt_t 1)))
 (let (($x11453 (forall ((w (_ BitVec 256)) )(let ((?x6395 (storage_t x_0 x_1 x_2 x_3 w_1 1 w)))
 (let ((?x9374 (storage_t x_0 x_1 x_2 x_3 w_1 2 w)))
 (= ?x9374 ?x6395))))
 ))
 (let (($x3572 (forall ((n (_ BitVec 6)) )(let ((?x199 (stack_t x_0 x_1 x_2 x_3 w_1 1 n)))
 (let ((?x9743 (stack_t x_0 x_1 x_2 x_3 w_1 2 n)))
 (or (= ?x9743 ?x199) (bvsle (bvadd (_ bv59 6) (sc_t 1)) n)))))
 ))
 (let (($x10503 (= ?x2992 (bvadd (_ bv1 6) (sc_t 1)))))
 (let ((?x9572 (used_gas_t x_0 x_1 x_2 x_3 w_1 2)))
 (let (($x5632 (= (stack_t x_0 x_1 x_2 x_3 w_1 2 (bvadd (_ bv63 6) (sc_t 1))) (stack_t x_0 x_1 x_2 x_3 w_1 1 (bvadd (_ bv63 6) (sc_t 1))))))
 (let (($x6125 (= (stack_t x_0 x_1 x_2 x_3 w_1 2 (bvadd (_ bv62 6) (sc_t 1))) (stack_t x_0 x_1 x_2 x_3 w_1 1 (bvadd (_ bv62 6) (sc_t 1))))))
 (let (($x2277 (= (stack_t x_0 x_1 x_2 x_3 w_1 2 (bvadd (_ bv61 6) (sc_t 1))) (stack_t x_0 x_1 x_2 x_3 w_1 1 (bvadd (_ bv61 6) (sc_t 1))))))
 (let (($x6683 (= (stack_t x_0 x_1 x_2 x_3 w_1 2 (bvadd (_ bv60 6) (sc_t 1))) (stack_t x_0 x_1 x_2 x_3 w_1 1 (bvadd (_ bv60 6) (sc_t 1))))))
 (let ((?x3379 (sc_t 1)))
 (let ((?x3814 (bvadd (_ bv59 6) ?x3379)))
 (let ((?x11639 (stack_t x_0 x_1 x_2 x_3 w_1 1 ?x3814)))
 (let (($x11464 (= $x408 (or $x56 (not (= ((_ extract 6 6) (bvadd (_ bv1 7) (concat (_ bv0 1) ?x63))) (_ bv0 1)))))))
 (let (($x1640 (forall ((w (_ BitVec 256)) )(let ((?x7904 (storage_t x_0 x_1 x_2 x_3 w_1 0 w)))
 (let ((?x6395 (storage_t x_0 x_1 x_2 x_3 w_1 1 w)))
 (= ?x6395 ?x7904))))
 ))
 (let (($x6121 (forall ((n (_ BitVec 6)) )(let ((?x8003 (stack_t x_0 x_1 x_2 x_3 w_1 0 n)))
 (let ((?x199 (stack_t x_0 x_1 x_2 x_3 w_1 1 n)))
 (let ((?x63 (sc_t 0)))
 (let (($x5904 (bvsle ?x63 n)))
 (or $x5904 (= ?x199 ?x8003)))))))
 ))
 (let (($x8894 (= ?x3379 (bvadd (_ bv1 6) ?x63))))
 (let (($x824 (= $x772 (or (exc_halt_s 5) (not (bvsle (_ bv0 6) (bvadd (_ bv62 6) (sc_s 5))))))))
 (let (($x1012 (forall ((w (_ BitVec 256)) )(let ((?x10694 (storage_s x_0 x_1 x_2 x_3 w_1 5 w)))
 (let ((?x7956 (storage_s x_0 x_1 x_2 x_3 w_1 6 w)))
 (= ?x7956 ?x10694))))
 ))
 (let (($x3607 (forall ((n (_ BitVec 6)) )(let ((?x4319 (sc_s 5)))
 (let ((?x3655 (bvadd (_ bv62 6) ?x4319)))
 (let (($x6198 (bvsle ?x3655 n)))
 (let ((?x8278 (stack_s x_0 x_1 x_2 x_3 w_1 5 n)))
 (let ((?x6705 (stack_s x_0 x_1 x_2 x_3 w_1 6 n)))
 (or (= ?x6705 ?x8278) $x6198)))))))
 ))
 (let ((?x4319 (sc_s 5)))
 (let (($x4384 (= ?x926 ?x4319)))
 (let (($x5378 (= (used_gas_s x_0 x_1 x_2 x_3 w_1 6) (+ 3 (used_gas_s x_0 x_1 x_2 x_3 w_1 5)))))
 (let ((?x5984 (bvadd (_ bv63 6) ?x4319)))
 (let ((?x148 (stack_s x_0 x_1 x_2 x_3 w_1 5 ?x5984)))
 (let ((?x3655 (bvadd (_ bv62 6) ?x4319)))
 (let ((?x2258 (stack_s x_0 x_1 x_2 x_3 w_1 5 ?x3655)))
 (let (($x1862 (exc_halt_s 5)))
 (let (($x11327 (= $x1862 (or (exc_halt_s 4) (not (bvsle (_ bv0 6) (bvadd (_ bv61 6) (sc_s 4))))))))
 (let (($x6741 (forall ((w (_ BitVec 256)) )(let ((?x4067 (storage_s x_0 x_1 x_2 x_3 w_1 4 w)))
 (let ((?x10694 (storage_s x_0 x_1 x_2 x_3 w_1 5 w)))
 (= ?x10694 ?x4067))))
 ))
 (let (($x8449 (forall ((n (_ BitVec 6)) )(let ((?x3145 (sc_s 4)))
 (let ((?x11862 (bvadd (_ bv61 6) ?x3145)))
 (let (($x9930 (bvsle ?x11862 n)))
 (let ((?x2120 (stack_s x_0 x_1 x_2 x_3 w_1 4 n)))
 (let ((?x8278 (stack_s x_0 x_1 x_2 x_3 w_1 5 n)))
 (or (= ?x8278 ?x2120) $x9930)))))))
 ))
 (let ((?x3145 (sc_s 4)))
 (let (($x9024 (= ?x4319 ?x3145)))
 (let ((?x2346 (used_gas_s x_0 x_1 x_2 x_3 w_1 5)))
 (let ((?x4151 (bvadd (_ bv63 6) ?x3145)))
 (let ((?x6358 (stack_s x_0 x_1 x_2 x_3 w_1 4 ?x4151)))
 (let (($x276 (exc_halt_s 4)))
 (let (($x467 (= $x276 (or (exc_halt_s 3) (not (bvsle (_ bv0 6) (bvadd (_ bv62 6) (sc_s 3))))))))
 (let (($x11798 (forall ((w (_ BitVec 256)) )(let ((?x501 (storage_s x_0 x_1 x_2 x_3 w_1 3 w)))
 (let ((?x4067 (storage_s x_0 x_1 x_2 x_3 w_1 4 w)))
 (= ?x4067 ?x501))))
 ))
 (let (($x694 (forall ((n (_ BitVec 6)) )(let ((?x1798 (stack_s x_0 x_1 x_2 x_3 w_1 3 n)))
 (let ((?x2120 (stack_s x_0 x_1 x_2 x_3 w_1 4 n)))
 (let ((?x4554 (sc_s 3)))
 (let ((?x7881 (bvadd (_ bv62 6) ?x4554)))
 (let (($x1229 (bvsle ?x7881 n)))
 (or $x1229 (= ?x2120 ?x1798))))))))
 ))
 (let ((?x4554 (sc_s 3)))
 (let (($x353 (= ?x3145 ?x4554)))
 (let ((?x8255 (used_gas_s x_0 x_1 x_2 x_3 w_1 4)))
 (let ((?x10403 (bvadd (_ bv62 6) ?x3145)))
 (let ((?x5296 (stack_s x_0 x_1 x_2 x_3 w_1 4 ?x10403)))
 (let (($x9352 (not (= ((_ extract 6 6) (bvadd (_ bv1 7) (concat (_ bv0 1) (sc_s 2)))) (_ bv0 1)))))
 (let (($x7873 (exc_halt_s 2)))
 (let (($x8777 (exc_halt_s 3)))
 (let (($x8915 (= $x8777 (or $x7873 $x9352))))
 (let (($x7899 (forall ((w (_ BitVec 256)) )(let ((?x1457 (storage_s x_0 x_1 x_2 x_3 w_1 2 w)))
 (let ((?x501 (storage_s x_0 x_1 x_2 x_3 w_1 3 w)))
 (= ?x501 ?x1457))))
 ))
 (let (($x10070 (forall ((n (_ BitVec 6)) )(let ((?x7378 (sc_s 2)))
 (let (($x5791 (bvsle ?x7378 n)))
 (let ((?x9855 (stack_s x_0 x_1 x_2 x_3 w_1 2 n)))
 (let ((?x1798 (stack_s x_0 x_1 x_2 x_3 w_1 3 n)))
 (or (= ?x1798 ?x9855) $x5791))))))
 ))
 (let (($x2780 (= ?x4554 (bvadd (_ bv1 6) (sc_s 2)))))
 (let ((?x1684 (used_gas_s x_0 x_1 x_2 x_3 w_1 3)))
 (let (($x8045 (not (bvsle (_ bv0 6) (bvadd (_ bv60 6) (sc_s 1))))))
 (let (($x4172 (not (= ((_ extract 6 6) (bvadd (_ bv1 7) (concat (_ bv0 1) (sc_s 1)))) (_ bv0 1)))))
 (let (($x2589 (exc_halt_s 1)))
 (let (($x4815 (= $x7873 (or $x2589 $x4172 $x8045))))
 (let (($x9939 (forall ((w (_ BitVec 256)) )(let ((?x3943 (storage_s x_0 x_1 x_2 x_3 w_1 1 w)))
 (let ((?x1457 (storage_s x_0 x_1 x_2 x_3 w_1 2 w)))
 (= ?x1457 ?x3943))))
 ))
 (let (($x10396 (forall ((n (_ BitVec 6)) )(let ((?x154 (sc_s 1)))
 (let ((?x714 (bvadd (_ bv60 6) ?x154)))
 (let (($x9506 (bvsle ?x714 n)))
 (let ((?x7356 (stack_s x_0 x_1 x_2 x_3 w_1 1 n)))
 (let ((?x9855 (stack_s x_0 x_1 x_2 x_3 w_1 2 n)))
 (or (= ?x9855 ?x7356) $x9506)))))))
 ))
 (let ((?x7378 (sc_s 2)))
 (let (($x10133 (= ?x7378 (bvadd (_ bv1 6) (sc_s 1)))))
 (let ((?x7817 (used_gas_s x_0 x_1 x_2 x_3 w_1 2)))
 (let ((?x154 (sc_s 1)))
 (let ((?x4689 (bvadd (_ bv63 6) ?x154)))
 (let ((?x2113 (stack_s x_0 x_1 x_2 x_3 w_1 1 ?x4689)))
 (let (($x1918 (= (stack_s x_0 x_1 x_2 x_3 w_1 2 (bvadd (_ bv62 6) ?x154)) (stack_s x_0 x_1 x_2 x_3 w_1 1 (bvadd (_ bv62 6) ?x154)))))
 (let (($x7255 (= (stack_s x_0 x_1 x_2 x_3 w_1 2 (bvadd (_ bv61 6) ?x154)) (stack_s x_0 x_1 x_2 x_3 w_1 1 (bvadd (_ bv61 6) ?x154)))))
 (let ((?x714 (bvadd (_ bv60 6) ?x154)))
 (let ((?x5279 (stack_s x_0 x_1 x_2 x_3 w_1 1 ?x714)))
 (let (($x2096 (not (bvsle (_ bv0 6) (bvadd (_ bv60 6) ?x72)))))
 (let (($x995 (not (= ((_ extract 6 6) (bvadd (_ bv1 7) (concat (_ bv0 1) ?x72))) (_ bv0 1)))))
 (let (($x6594 (forall ((w (_ BitVec 256)) )(let ((?x4789 (storage_s x_0 x_1 x_2 x_3 w_1 0 w)))
 (let ((?x3943 (storage_s x_0 x_1 x_2 x_3 w_1 1 w)))
 (= ?x3943 ?x4789))))
 ))
 (let (($x5077 (forall ((n (_ BitVec 6)) )(let ((?x72 (sc_s 0)))
 (let ((?x970 (bvadd (_ bv60 6) ?x72)))
 (let (($x8223 (bvsle ?x970 n)))
 (let ((?x428 (stack_s x_0 x_1 x_2 x_3 w_1 0 n)))
 (let ((?x7356 (stack_s x_0 x_1 x_2 x_3 w_1 1 n)))
 (or (= ?x7356 ?x428) $x8223)))))))
 ))
 (let (($x5498 (= ?x154 (bvadd (_ bv1 6) ?x72))))
 (let (($x4884 (= (stack_s x_0 x_1 x_2 x_3 w_1 1 (bvadd (_ bv63 6) ?x72)) (stack_s x_0 x_1 x_2 x_3 w_1 0 (bvadd (_ bv63 6) ?x72)))))
 (let (($x9204 (= (stack_s x_0 x_1 x_2 x_3 w_1 1 (bvadd (_ bv62 6) ?x72)) (stack_s x_0 x_1 x_2 x_3 w_1 0 (bvadd (_ bv62 6) ?x72)))))
 (let (($x10460 (= (stack_s x_0 x_1 x_2 x_3 w_1 1 (bvadd (_ bv61 6) ?x72)) (stack_s x_0 x_1 x_2 x_3 w_1 0 (bvadd (_ bv61 6) ?x72)))))
 (let ((?x970 (bvadd (_ bv60 6) ?x72)))
 (let ((?x1150 (stack_s x_0 x_1 x_2 x_3 w_1 0 ?x970)))
 (let (($x9948 (forall ((w (_ BitVec 256)) )(let ((?x4789 (storage_s x_0 x_1 x_2 x_3 w_1 0 w)))
 (= ?x4789 (_ bv0 256))))
 ))
 (let (($x977 (= ?x4176 0)))
 (let (($x11010 (not $x57)))
 (let (($x6280 (= (stack_s x_0 x_1 x_2 x_3 w_1 0 (_ bv3 6)) x_3)))
 (let (($x3592 (= (stack_s x_0 x_1 x_2 x_3 w_1 0 (_ bv2 6)) x_2)))
 (let (($x7808 (= (stack_s x_0 x_1 x_2 x_3 w_1 0 (_ bv1 6)) x_1)))
 (let (($x11503 (= (stack_s x_0 x_1 x_2 x_3 w_1 0 (_ bv0 6)) x_0)))
 (let (($x11199 (= ?x72 (_ bv4 6))))
 (and $x11199 $x11503 $x7808 $x3592 $x6280 $x11010 $x977 $x9948 (= ?x2113 ?x1150) (= (stack_s x_0 x_1 x_2 x_3 w_1 1 ?x970) ?x1150) $x10460 $x9204 $x4884 (= (used_gas_s x_0 x_1 x_2 x_3 w_1 1) (+ 3 ?x4176)) $x5498 $x5077 $x6594 (= $x2589 (or $x57 $x995 $x2096)) (= (stack_s x_0 x_1 x_2 x_3 w_1 2 (bvadd (_ bv63 6) ?x7378)) ?x5279) (= (stack_s x_0 x_1 x_2 x_3 w_1 2 ?x714) ?x5279) $x7255 $x1918 (= (stack_s x_0 x_1 x_2 x_3 w_1 2 ?x4689) ?x2113) (= ?x7817 (+ 3 (used_gas_s x_0 x_1 x_2 x_3 w_1 1))) $x10133 $x10396 $x9939 $x4815 (= (stack_s x_0 x_1 x_2 x_3 w_1 3 ?x7378) w_1) (= ?x1684 (+ 3 ?x7817)) $x2780 $x10070 $x7899 $x8915 (= ?x6358 (stack_s x_0 x_1 x_2 x_3 w_1 3 (bvadd (_ bv62 6) ?x4554))) (= ?x5296 (stack_s x_0 x_1 x_2 x_3 w_1 3 (bvadd (_ bv63 6) ?x4554))) (= ?x8255 (+ 3 ?x1684)) $x353 $x694 $x11798 $x467 (= ?x148 (stack_s x_0 x_1 x_2 x_3 w_1 4 (bvadd (_ bv61 6) ?x3145))) (= (stack_s x_0 x_1 x_2 x_3 w_1 5 (bvadd (_ bv61 6) ?x4319)) ?x6358) (= ?x2258 ?x5296) (= ?x2346 (+ 3 ?x8255)) $x9024 $x8449 $x6741 $x11327 (= (stack_s x_0 x_1 x_2 x_3 w_1 6 (bvadd (_ bv63 6) ?x926)) ?x2258) (= (stack_s x_0 x_1 x_2 x_3 w_1 6 (bvadd (_ bv62 6) ?x926)) ?x148) $x5378 $x4384 $x3607 $x1012 $x824 (= (stack_t x_0 x_1 x_2 x_3 w_1 1 ?x63) w_1) (= (used_gas_t x_0 x_1 x_2 x_3 w_1 1) (+ 3 ?x1185)) $x8894 $x6121 $x1640 $x11464 (= ?x6205 ?x11639) (= (stack_t x_0 x_1 x_2 x_3 w_1 2 ?x3814) ?x11639) $x6683 $x2277 $x6125 $x5632 (= ?x9572 (+ 3 (used_gas_t x_0 x_1 x_2 x_3 w_1 1))) $x10503 $x3572 $x11453 (= $x9580 (or $x408 (not (bvsle (_ bv0 6) ?x3814)) $x9534)) (= ?x3965 ?x5751) (= (stack_t x_0 x_1 x_2 x_3 w_1 3 ?x1386) ?x5751) $x9762 $x9391 $x3820 (= (stack_t x_0 x_1 x_2 x_3 w_1 3 ?x2620) ?x6205) (= ?x10789 (+ 3 ?x9572)) $x8488 $x10091 $x9330 (= $x4112 (or $x7845 $x9580 (not (bvsle (_ bv0 6) ?x1386)))) $x829 (= (stack_t x_0 x_1 x_2 x_3 w_1 4 (bvadd (_ bv61 6) ?x1366)) ?x3965) $x9882 $x9731 $x8397 $x1875 $x7965 $x11654 $x73 $x1056 $x58 $x4982 $x9250 (not (and $x3046 $x7418 $x4404 $x8636)))))))))))))))))))))))))))))))))))))))))))))))))))))))))))))))))))))))))))))))))))))))))))))))))))))))))))))))))))))))))))))))))))))))
 )
(check-sat)
(get-proof)
